// Objective Function
max: 4x11 + x12 + 5x13 + 4x14 + x15 + 5x16 + 4x17 + x18 + 5x19 + 4x110 + x111 + 5x112 + 2x21 + x22 + 2x23 + 2x24 + x25 + 2x26+ 2x21 + x22 + 2x23+ 2x21 + x22 + 2x23 ;

/* Constraints */
14000 u1 + 3500 u2 - 150 v1 - .2 v2 <= 0;
14000 u1 + 21000 u2 - 400 v1 - .7 v2 <= 0;
42000 u1 + 10500 u2 - 320 v1 - 1.2 v2 <= 0;
28000 u1 + 42000 u2 - 520 v1 - 2.0 v2 <= 0;
19000 u1 + 25000 u2 - 350 v1 - 1.2 v2 <= 0;
14000 v1 + 15000 v2 - 320 u1 - .7 u2 <= 0;
+ 150 v1 + .2 v2 = 1;
